multiobj/instances/uniform/Ter.6.2.0.40.3.in
6 2
0 774 34 397 940 378 
774 0 654 5 8 425 
34 654 0 177 493 205 
397 5 177 0 420 349 
940 8 493 420 0 958 
378 425 205 349 958 0 
0 476 714 60 39 810 
476 0 735 344 221 224 
714 735 0 590 492 765 
60 344 590 0 188 954 
39 221 492 188 0 883 
810 224 765 954 883 0 
0 393 524 367 86 700 
393 0 714 841 268 156 
524 714 0 526 333 229 
367 841 526 0 230 502 
86 268 333 230 0 278 
700 156 229 502 278 0 
