multiobj/solutions/Ter.6.2.0.40.3.out
4 2
4 1 3 5 0 2 
4195756 4453622 
5 0 2 3 4 1 
4419228 4006266 
3 0 2 5 4 1 
4698584 3977978 
4 0 2 3 5 1 
4876426 3924288 
